data/mip_solutions/furman_sahinidis/transportation/22sp-ph_gurobi.sol
Elapsed time: 0.438081979752
Nodes explored: 0
Upper bound: 26.0
Lower bound: 26.0
y[0,2]=1
y[1,0]=1
y[1,6]=1
y[1,8]=1
y[1,10]=1
y[1,11]=1
y[2,11]=1
y[3,2]=1
y[4,1]=1
y[4,11]=1
y[5,2]=1
y[6,2]=1
y[6,4]=1
y[6,5]=1
y[6,7]=1
y[6,8]=1
y[6,9]=1
y[6,11]=1
y[7,2]=1
y[8,1]=1
y[8,3]=1
y[8,8]=1
y[8,11]=1
y[9,0]=1
y[10,2]=1
y[11,8]=1
q[0,12,2,15]=12.0
q[1,3,6,3]=4.1
q[1,3,8,3]=132.1
q[1,3,10,4]=3.8
q[1,4,8,4]=84.0
q[1,5,8,5]=42.0
q[1,6,0,17]=1.6
q[1,6,8,6]=12.4
q[1,7,0,8]=8.0
q[1,7,0,11]=46.0
q[1,7,8,7]=248.4
q[1,7,11,17]=5.59999999999
q[1,8,0,11]=34.0
q[1,8,0,13]=20.0
q[1,8,0,14]=24.0
q[1,8,0,15]=48.0
q[1,8,0,16]=4.41957581643e-12
q[1,9,0,9]=72.0
q[1,9,0,10]=32.0
q[1,9,0,13]=22.0
q[1,10,0,17]=56.0
q[1,11,0,17]=84.4000000001
q[1,11,11,17]=55.5999999999
q[1,12,0,12]=8.0
q[1,12,0,13]=6.0
q[1,13,11,17]=84.0
q[1,14,11,17]=42.0
q[1,15,11,17]=84.0
q[1,16,0,16]=16.0
q[1,16,11,17]=12.0
q[1,17,11,17]=252.0
q[2,13,11,17]=276.0
q[2,14,11,17]=138.0
q[2,15,11,17]=276.0
q[2,16,11,17]=92.0
q[2,17,11,17]=460.0
q[3,15,2,15]=5.9
q[4,10,1,10]=76.8
q[4,10,1,11]=35.2
q[4,10,1,12]=72.0
q[4,11,1,11]=460.0
q[4,12,1,13]=46.0
q[4,13,1,13]=276.0
q[4,13,1,14]=-7.60007696181e-12
q[4,14,1,14]=138.0
q[4,15,1,15]=224.0
q[4,15,1,16]=52.0
q[4,16,1,16]=92.0
q[4,16,11,17]=6.13908923697e-12
q[4,17,11,17]=828.0
q[5,14,2,16]=3.5
q[6,6,5,10]=3.78364006792e-13
q[6,6,7,6]=8.0
q[6,6,8,6]=10.0
q[6,7,4,8]=7.6
q[6,7,5,9]=144.0
q[6,7,8,7]=244.4
q[6,8,2,15]=55.8
q[6,8,5,8]=16.0
q[6,8,5,11]=90.2
q[6,9,2,15]=23.84
q[6,9,5,10]=64.0
q[6,9,11,17]=74.16
q[6,10,5,11]=69.8
q[6,10,9,10]=2.2
q[6,11,2,14]=90.0
q[6,11,5,12]=16.0
q[6,11,5,14]=42.0
q[6,11,5,16]=32.0
q[6,12,5,13]=12.0
q[6,12,5,14]=6.0
q[6,13,2,15]=16.46
q[6,13,2,16]=7.54
q[6,13,5,13]=84.0
q[6,14,2,15]=54.0
q[6,15,2,15]=12.0
q[6,15,5,15]=96.0
q[6,16,2,16]=36.0
q[6,17,11,17]=180.0
q[7,14,2,16]=9.5
q[8,1,1,10]=4.54747350886e-13
q[8,1,3,1]=12.0
q[8,1,8,1]=1770.4
q[8,1,8,2]=224.0
q[8,2,8,2]=528.0
q[8,3,8,3]=528.0
q[8,4,8,4]=316.8
q[8,5,8,5]=158.4
q[8,6,8,6]=52.8
q[8,7,8,7]=1161.6
q[8,8,1,8]=72.0
q[8,8,1,9]=172.8
q[8,8,1,11]=120.4
q[8,8,1,13]=110.0
q[8,9,1,9]=475.2
q[8,10,1,10]=211.2
q[8,11,1,11]=104.4
q[8,11,11,17]=423.6
q[8,12,11,17]=52.8
q[8,13,11,17]=316.8
q[8,14,1,14]=78.0
q[8,14,11,17]=80.4
q[8,15,1,15]=208.0
q[8,15,11,17]=108.8
q[8,16,11,17]=105.6
q[8,17,0,17]=-2.11199984726e-11
q[8,17,11,17]=950.4
q[9,17,0,17]=2.0
q[10,16,2,16]=3.46
q[11,0,8,0]=1955.2
q[11,0,8,1]=1087.2
q[11,0,8,3]=91.9
q[11,0,8,4]=50.4
q[11,0,8,5]=25.2
